288 288 270 256 256 246 236 228 228 220 212 204 196 188 196 188 172 164 156 148 140 148 164 172 156 140 132 124 116 104 104 104 90 80 64 64 56 56 56 56 56 56 56 40 40 40 40 40 40 40 32 32 32 32 32 32 32 32 40 56 56 48 40 32 32 24 16 16 8 8 8 8 8 8 8 16 8 8 24 32 32 32 32 32 32 40 40 40 40 44 44 44 32 24 16 16 24 32 44 56 56 56 56 56 64 72 72 56 48 56 56 48 48 56 56 48 56 56 104 104 104 104 104 104 104 116 124 132 132 140 148 156 164 172 172 172 172 172 172 180 180 180 180 180 172 172 172 172 164 148 124 124 124 124 124 124 104 104 104 104 104 104 104 104 104 92 80 72 64 72 80 80 80 88 104 124 124 132 140 132 124 124 124 124 124 132 124 120 128 136 148 162 156 172 180 180 172 172 172 180 180 188 196 204 212 220 228 228 236 236 236 228 228 236 236 228 228 236 236 228 228 236 252 260 260 260 260 260 260 260 276 276 276 276 284 284 284 284 284 284 284 288 280 276 276 276 268 260 252 260 260 236 228 228 236 236 228 228 228 228 220 212 204 196 188 180 180 180 180 180 196 204 212 220 228 236 246 252 260 280
149 129 133 141 157 157 169 169 161 169 169 169 169 169 161 145 145 145 145 145 145 169 169 169 169 169 169 169 161 153 161 169 165 157 157 165 169 161 153 145 137 129 121 121 129 137 145 153 161 169 169 161 153 145 137 129 121 113 113 113 105 99 99 97 89 89 97 109 109 97 89 81 73 65 57 57 49 41 45 41 49 57 65 73 81 83 73 63 51 43 35 27 25 25 25 17 17 17 11 9 17 25 33 41 41 41 49 49 51 57 65 63 73 73 81 83 89 97 97 105 113 121 129 137 145 145 145 145 137 137 137 137 137 125 117 109 101 93 85 85 77 69 61 53 53 61 69 77 81 85 85 93 109 125 117 101 89 81 73 65 49 41 33 25 17 9 9 9 21 25 25 25 41 49 57 69 77 81 65 61 61 53 45 37 29 21 21 9 9 9 9 9 25 21 21 29 29 37 45 45 37 41 49 57 65 73 69 77 77 69 61 61 53 53 45 45 37 37 29 29 21 21 21 29 37 45 53 61 69 77 77 69 61 53 53 61 69 77 85 93 101 109 109 101 93 85 97 109 101 93 85 85 85 93 93 101 101 109 117 125 125 117 109 101 93 93 101 109 117 125 145 145 145 145 145 145 141 125 129 133
30436.6 28975.1 28655.5 28068.6 27762.5 27114.2 26616.2 26261.6 26002.9 25144.6 24764.1 24683.2 24683.2 24428.8 24285.8 24124.8 23729.6 23576.4 23278.1 23278.1 22704.2 22645.5 22633.6 22462.9 22293.4 21690.3 21247.8 21228.3 20775.1 20775.1 20739.6 20649.4 20126.9 19904.3 19564.5 19049.1 19042.6 18615.3 18452.4 18439.2 18121.5 18121.5 18019 18019 18019 17887.7 17780.6 17533.1 17468.6 17468.6 17468.6 17450.5 17327 17324.7 17096.8 17096.8 17084.3 17084.3 17084.3 17039.8 16969.2 16934.3 16924.5 16924.5 16898.5 16898.5 16567.6 16434.7 16395.1 16389.6 16389.6 15989.1 15896.8 15800.9 15695.4 15695.4 15694.3 15610.3 15557.5 15506.1 15506.1 15428.6 15303.3 15198.7 15198.7 15198.7 15198.7 15198.7 15198.7 15198.7 15162.3 15097.5 14997 14881.9 14881.9 14875.3 14816.3 14785.2 14785.2 14607.8 14607.8 14607.8 14607.8 14607.8 14607.8 14607.8 14607.8 14607.8 14607.8 14529.4 14529.4 14384 14052.5 14052.5 14052.5 14052.5 14007.7 14007.7 14007.7 13984.1 13983.1 13924.2 13888.2 13759.6 13759.6 13713.8 13679.9 13497.8 13497.8 13497.8 13497.8 13497.8 13497.8 13497.8 13497.8 13497.8 13497.8 13497.8 13497.8 13379.4 13327.9 13203.8 13188.1 13188.1 13188.1 13095 13078.9 13078.9 12990 12990 12990 12990 12986.1 12966.9 12966.9 12966.9 12911.5 12846.7 12846.7 12831.1 12784.7 12779.7 12656.9 12561 12561 12561 12561 12561 12561 12545.4 12545.4 12514.7 12502.4 12502.4 12502.4 12502.4 12502.4 12502.4 12497.5 12433.8 12433.8 12383.9 12315.1 12301.7 12293.8 12293.8 12293.8 12293.8 12293.8 12293.8 12293.8 12293.8 12293.8 12293.8 12293.8 12293.8 12293.8 12293.8 12287.8 12136.1 12136.1 12136.1 12136.1 12136.1 12136.1 12136.1 12117.5 12088.8 12088.8 12088.8 12074.1 12074.1 11966.8 11961.7 11961.7 11891.2 11891.2 11891.2 11891.2 11891.2 11891.2 11891.2 11891.2 11891.2 11891.2 11891.2 11891.2 11891.2 11891.2 11887.8 11870.2 11866.8 11866.8 11866.8 11836.8 11804.5 11804.5 11802.1 11802.1 11802.1 11797.6 11786.6 11786.6 11786.6 11769.6 11769.6 11763.1 11763.1 11763.1 11763.1 11763.1 11763.1 11721.1 11721.1 11721.1 11721.1 11721.1 11721.1 11721.1 11721.1 11721.1 11721.1 11721.1 11712.6 11675.4 11598 11598 11598 11597.1 11585.7 11585.7 11585.7 11585.7 11585.7 11585.7 11585.7 11585.7 11585.7 11585.7 11585.7 11476.5 11476.5 11476.5 11476.5 11476.5 11476.5 11476.5 11476.5 11476.5 11453.5 11442.7 11442.7 11391.4 11391.4 11370.7 11370.7 11370.7 11370.7 11370.7 11370.7 11370.7 11370.7 11370.7 11370.7 11370.7 11370.7 11370.7 11370.7 11370.7 11370.7 11370.7 11354.3 11354.3 11354.3 11348 11325.9 11179.6 11179.6 11179.6 11141.4 11141.4 11141.4 11141.4 11141.4 11141.4 11141.4 11141.4 11141.4 11141.4 11141.4 11141.4 11141.4 11117 11082.3 11082.3 11082.3 11082.3 11082.3 11082.3 11082.3 11082.3 11082.3 11082.3 11082.3 11079.8 11079.8 11079.8 11079.5 11065.3 11016.7 11016.7 11016.7 11016.7 11016.7 11016.7 11016.7 11008.4 11008.4 11008.4 10948 10948 10946.3 10946.3 10946.3 10946.3 10946.3 10937.1 10937.1 10937.1 10937.1 10937.1 10937.1 10937.1 10937.1 10937.1 10937.1 10937.1 10937.1 10937.1 10937.1 10937.1 10937.1 10937.1 10937.1 10937.1 10937.1 10937.1 10937.1 10937.1 10895.4 10895.4 10894.7 10894.7 10894.7 10894.7 10894.7 10894.7 10894.7 10894.7 10894.7 10894.7 10894.7 10862.6 10849.6 10845.7 10845.7 10845.7 10819.5 10646.8 10644 10644 10644 10628.9 10628.9 10628.9 10628.9 10628.9 10617 10617 10617 10617 10617 10617 10617 10617 10617 10589 10532 10532 10532 10532 10509.5 10455.4 10455.4 10455.4 10455.4 10455.4 10455.4 10455.4 10455.4 10455.4 10455.4 10455.4 10455.4 10433.3 10433.3 10433.3 10398.7 10398.7 10366.8 10366.8 10366.8 10366.8 10366.8 10360.9 10314.2 10314.2 10314.2 10314.2 10312.9 10296.2 10296.2 10296.2 10296.2 10269.4 10269.4 10269.4 10269.4 10224.8 10217.2 10217.2 10193.5 10193.5 10193.5 10193.5 10193.5 10193.5 10193.5 10193.5 10193.5 10193.5 10193.5 10193.5 10193.5 10193.5 10193.5 10193.5 10193.5 10193.5 10193.5 10193.5 10193.5 10193.5 10193.5 10193.5 10193.5 10193.5 10193.5 10193.5 10193.5 10193.5 10193.5 10193.5 10193.5 10193.5 10193.5 10193.5 10193.5 10193.5 10193.5 10193.5 10193.5 10193.5 10193.5 10193.5 10193.5 10193.5 10193.5 10170.5 10127.1 10127.1 10122.4 10122.4 10122.4 10122.4 10055.4 10055.4 10055.4 10055.4 10055.4 10024.9 10024.9 10024.9 10024.9 10024.9 10024.9 10024.9 10024.9 10024.9 10024.9 10024.9 10024.9 9980.71 9980.71 9980.71 9980.71 9980.71 9980.71 9980.71 9980.71 9980.71 9980.71 9970.85 9896.67 9896.67 9896.22 9896.22 9896.22 9896.22 9896.22 9896.22 9896.22 9896.22 9896.22 9896.22 9896.22 9896.22 9896.22 9896.22 9879.7 9858.94 9837.11 9810 9810 9754.49 9754.49 9754.49 9754.49 9754.49 9754.49 9754.49 9754.49 9754.49 9754.49 9754.49 9754.49 9754.49 9754.49 9754.49 9754.49 9754.49 9754.49 9754.49 9754.49 9754.49 9754.49 9709.74 9709.74 9709.74 9709.74 9709.74 9709.74 9709.74 9709.74 9709.74 9709.74 9709.74 9709.74 9709.74 9678.02 9678.02 9662.75 9662.75 9662.75 9662.75 9662.75 9662.75 9662.75 9612.74 9580.35 9580.35 9580.35 9580.35 9570.46 9570.46 9570.46 9570.46 9570.46 9570.46 9499.13 9499.13 9499.13 9499.13 9499.13 9454.86 9454.86 9454.86 9454.86 9454.86 9454.86 9454.86 9454.86 9428.55 9428.55 9428.55 9428.55 9398.3 9313.58 9283.39 9283.39 9283.39 9283.39 9209.69 9209.69 9209.69 9209.69 9209.69 9209.69 9198.67 9198.67 9198.67 9198.67 9198.67 9198.67 9198.67 9198.67 9198.67 9198.67 9198.67 9170.96 9170.96 9170.96 9170.96 9170.96 9170.96 9159.94 9159.94 9159.94 9154.62 9148.49 9148.49 9148.49 9148.49 9148.49 9148.49 9148.49 9148.49 9148.49 9148.49 9148.49 9147.67 9147.67 9147.67 9108.83 9076.86 9076.86 9065.05 9059.96 9059.96 9059.96 9059.96 9059.96 9059.96 9017.54 9017.54 9017.54 9017.54 9017.54 8992.73 8992.73 8992.73 8986.6 8986.6 8986.6 8981.9 8981.9 8981.9 8981.9 8981.9 8947.54 8947.54 8947.54 8947.54 8947.54 8913.68 8913.68 8913.68 8913.68 8913.68 8913.68 8913.68 8913.68 8913.68 8913.68 8913.68 8913.68 8913.68 8913.68 8838.28 8838.28 8838.28 8838.28 8830.1 8830.1 8830.1 8830.1 8830.1 8830.1 8830.1 8822.53 8822.53 8804.21 8732.11 8690.89 8690.89 8690.89 8654.28 8654.28 8654.28 8654.28 8654.28 8654.28 8654.28 8654.28 8654.28 8654.28 8654.28 8654.28 8614.32 8596.03 8596.03 8586.65 8586.65 8560.39 8560.39 8560.39 8560.39 8560.39 8560.39 8560.39 8560.39 8560.39 8560.39 8560.39 8560.39 8560.39 8560.39 8560.39 8560.39 8560.39 8560.39 8560.39 8560.39 8560.39 8560.39 8560.39 8560.39 8560.39 8560.39 8560.39 8560.39 8560.39 8560.39 8560.39 8560.39 8560.39 8560.39 8560.39 8560.39 8554.18 8554.18 8554.18 8489.2 8489.2 8489.2 8489.2 8489.2 8465.2 8465.2 8465.2 8465.2 8465.2 8465.2 8465.2 8465.2 8465.2 8465.2 8465.2 8465.2 8465.2 8465.2 8465.2 8463.37 8463.37 8463.37 8463.37 8463.37 8463.37 8463.37 8463.37 8463.37 8463.37 8463.37 8412.59 8412.59 8412.59 8412.59 8412.59 8412.59 8412.59 8412.59 8412.59 8412.59 8412.59 8409.9 8394.3 8394.3 8388.1 8388.1 8382.06 8382.06 8377.87 8377.87 8377.87 8342.69 8342.69 8342.69 8342.69 8342.69 8240.98 8240.98 8240.98 8240.98 8240.98 8240.98 8240.98 8231.55 8231.55 8231.55 8231.55 8231.55 8231.55 8231.55 8231.55 8207.43 8207.43 8207.43 8207.43 8207.43 8207.43 8207.43 8207.43 8207.43 8207.43 8207.43 8207.43 8207.43 8207.43 8207.43 8207.43 8207.43 8207.43 8207.43 8207.43 8157.36 8157.36 8157.36 8157.36 8157.36 8157.36 8157.36 8157.36 8157.36 8157.36 8157.36 8157.36 8157.36 8157.36 8157.36 8157.36 8157.36 8157.36 8157.36 8157.36 8157.36 8157.36 8157.36 8157.36 8157.36 8157.36 8157.36 8157.36 8157.36 8157.36 8157.36 8151.98 8151.98 8151.98 8151.98 8151.98 8151.98 8142.55 8142.55 8128.14 8128.14 8128.14 8128.14 8128.14 8128.14 8128.14 8128.14 8128.14 8119.91 8119.91 8119.91 8119.91 8119.91 8119.91 8119.91 8119.91 8119.91 8119.91 8119.91 8119.91 8119.91 8119.91 8119.91 8103.22 8103.22 8052.74 8052.74 8052.74 8052.74 8052.74 8052.74 8052.74 8052.74 8052.74 8048.7 8048.7 8048.7 8048.7 8048.7 8048.7 8048.7 8048.7 8048.7 8048.7 8048.7 8048.7 8048.7 8048.7 8048.7 8048.7 8048.7 8048.7 8048.7 8048.7 8048.7 8048.7 8048.7 8048.7 8048.7 8048.7 8048.7 8048.7 8048.7 8048.7 8048.7 8048.7 8048.7 8048.7 8048.7 8048.7 8048.7 8029.38 8029.38 8029.38 8029.38 8029.38 8029.38 8029.38 8029.38 8029.38 8029.38 8029.38 8029.38 8024.31 8024.31 8019.09 8019.09 8019.09 7968.3 7968.3 7968.3 7968.3 7968.3 7968.3 7968.3 7968.3 7968.3 7968.3 7968.3 7939.48 7939.48 7939.48 7939.48 7939.48 7939.48 7939.48 7939.48 7939.48 7939.48 7939.48 7939.48 7939.48 7939.48 7939.48 7939.48 7939.48 7939.48 7939.48 7939.48 7939.48 7939.48 7939.48 7939.48 7939.48 7939.48 7939.48 7939.48 7939.48 7936.26 7923.63 7849.58 7839.47 7839.47 7839.47 7839.47 7839.47 7839.47 7839.47 7839.47 7839.47 7839.47 7839.47 7839.47 7839.47 7839.47 7826.92 7825.36 7793.27 7793.27 7793.27 7793.27 7793.27 7793.27 7793.27 7793.27 7793.27 7793.27 7793.27 7793.27 7793.27 7793.27 7793.27 7793.27 7793.27 7793.27 7793.27 7793.27 7793.27 7738.69 7738.69 7738.69 7738.69 7738.69 7738.69 7738.69 7738.69 7738.69 7738.69 7738.69 7738.69 7738.69 7738.69 7738.69 7738.69 7738.69 7738.69 7738.69 7738.69 7738.69 7738.69 7738.69 7738.69 7738.69 7738.69 7738.69 7738.69 7738.69 7738.69 7738.69 7738.69 7738.69 7738.69 7738.69 7738.69 7738.69 7738.69 7738.69 7738.69 7738.69 7738.69 7738.69 7738.69 7738.69 7738.69 7738.69 7738.69 7738.69 7730.69 7689.52 7669.99 7669.99 7669.99 7669.99 7669.99 7669.99 7669.99 7669.99 7669.99 7669.99 7669.99 7669.99 7669.99 7669.99 7669.99 7669.99 7669.99 7669.99 7669.99 7669.99 7669.99 7669.99 7669.99 7669.99 7669.99 7669.99 7669.99 7669.99 7669.99 7669.99 7669.99 7669.99 7669.99 7669.99 7669.99 7669.99 7669.99 7669.99 7669.99 7669.99 7669.99 7669.99 7669.99 7669.99 7669.99 7669.99 7669.99 7664.48 7664.48 7664.48 7664.48 7664.48 7640.88 7640.88 7640.88 7640.88 7640.88 7640.88 7640.88 7640.88 7640.88 7633.51 7633.51 7633.51 7633.51 7633.51 7633.51 7633.51 7633.51 7633.51 7633.51 7633.51 7633.51 7633.51 7633.51 7633.51 7598.15 7598.15 7598.15 7598.15 7598.15 7598.15 7598.15 7598.15 7598.15 7598.15 7598.15 7598.15 7598.15 7598.15 7598.15 7598.15 7598.15 7598.15 7598.15 7598.15 7574.09 7574.09 7574.09 7574.09 7574.09 7574.09 7574.09 7574.09 7574.09 7574.09 7574.09 7574.09 7564.02 7564.02 7564.02 7564.02 7564.02 7542.23 7542.23 7542.23 7542.23 7542.23 7542.23 7542.23 7542.23 7542.23 7503.08 7503.08 7503.08 7503.08 7503.08 7503.08 7503.08 7503.08 7503.08 7503.08 7503.08 7503.08 7503.08 7503.08 7503.08 7503.08 7503.08 7503.08 7503.08 7503.08 7503.08 7503.08 7503.08 7503.08 7503.08 7503.08 7503.08 7503.08 7503.08 7503.08 7503.08 7455.15 7455.15 7455.15 7428.75 7413.31 7413.31 7413.31 7413.31 7413.31 7413.31 7413.31 7413.31 7392.46 7392.46 7392.46 7363.67 7363.67 7363.67 7363.67 7363.67 7363.67 7363.67 7363.67 7363.67 7363.67 7363.67 7363.67 7363.67 7363.67 7341.93 7341.93 7341.7 7341.7 7316.35 7316.35 7314.79 7314.79 7314.79 7314.79 7314.79 7314.79 7314.79 7314.79 7314.79 7314.79 7314.79 7314.79 7314.79 7314.79 7307.34 7307.34 7307.34 7307.34 7307.34 7307.34 7307.34 7307.34 7307.34 7307.34 7307.34 7307.34 7307.34 7307.34 7307.34 7307.34 7307.34 7307.34 7307.34 7307.34 7290.91 7290.91 7290.91 7290.91 7290.91 7290.91 7282.57 7281.69 7271.93 7271.93 7271.93 7271.93 7271.93 7253.79 7253.79 7253.79 7253.79 7253.79 7253.79 7226.94 7226.94 7208.76 7208.76 7208.76 7208.76 7208.76 7195.76 7193.83 7193.83 7193.83 7193.83 7193.83 7193.83 7193.83 7187 7187 7187 7187 7187 7187 7187 7187 7187 7187 7187 7187 7187 7187 7187 7187 7187 7187 7187 7187 7187 7187 7187 7187 7187 7187 7187 7187 7187 7187 7187 7187 7187 7187 7187 7187 7187 7187 7187 7187 7187 7187 7187 7187 7187 7180.09 7180.09 7180.09 7168.92 7168.92 7168.92 7162.08 7162.08 7162.08 7162.08 7162.08 7162.08 7162.08 7162.08 7162.08 7162.08 7162.08 7162.08 7162.08 7162.08 7162.08 7162.08 7162.08 7162.08 7162.08 7162.08 7162.08 7162.08 7162.08 7162.08 7162.08 7162.08 7162.08 7162.08 7162.08 7162.08 7162.08 7162.08 7162.08 7162.08 7162.08 7162.08 7162.08 7162.08 7162.08 7162.08 7162.08 7162.08 7162.08 7162.08 7162.08 7162.08 7162.08 7162.08 7162.08 7162.08 7162.08 7162.08 7119.29 7119.29 7119.29 7119.29 7119.29 7119.29 7119.29 7119.29 7119.29 7119.29 7119.29 7119.29 7119.29 7119.29 7119.29 7119.29 7119.29 7119.29 7119.29 7119.29 7119.29 7119.29 7119.29 7119.29 7119.29 7119.29 7119.29 7119.29 7119.29 7119.29 7119.29 7119.29 7119.29 7119.29 7119.29 7119.29 7119.29 7119.29 7119.29 7119.29 7119.29 7119.29 7119.29 7119.29 7119.29 7119.29 7119.29 7119.29 7119.29 7119.29 7119.29 7119.29 7119.29 7119.29 7119.29 7119.29 7119.29 7119.29 7119.29 7119.29 7119.29 7119.29 7119.29 7119.29 7119.29 7119.29 7119.29 7119.29 7119.29 7119.29 7119.29 7119.29 7119.29 7119.29 7119.29 7119.29 7119.29 7119.29 7119.29 7119.29 7119.29 7119.29 7119.29 7119.29 7119.29 7119.29 7119.29 7119.29 7119.29 7119.29 7119.29 7119.29 7119.29 7119.29 7119.29 7119.29 7119.29 7119.29 7119.29 7112.9 7112.9 7112.9 7112.9 7112.9 7112.9 7112.9 7112.9 7112.9 7112.9 7112.9 7112.9 7112.9 7112.9 7112.9 7112.9 7112.9 7112.9 7112.9 7112.9 7112.9 7112.9 7112.9 7102.99 7102.99 7102.99 7102.99 7102.99 7102.99 7102.99 7079.28 7079.28 7079.28 7072.89 7072.89 7061.62 7055.22 7055.22 7055.22 7055.22 7055.22 7055.22 7055.22 7055.22 7055.22 7055.22 7055.22 7055.22 7055.22 7055.22 7055.22 7028.04 7028.04 7028.04 7028.04 6968.9 6968.9 6968.9 6968.9 6968.9 6968.9 6968.9 6968.9 6968.9 6961.48 6961.48 6961.48 6961.48 6961.48 6961.48 6961.48 6961.48 6961.48 6955.08 6955.08 6955.08 6914.1 6914.1 6914.1 6914.1 6914.1 6914.1 6914.1 6914.1 6914.1 6914.1 6914.1 6914.1 6914.1 6914.1 6914.1 6914.1 6914.1 6891.1 6884.7 6883.67 6883.67 6883.67 6883.67 6883.67 6883.67 6883.67 6883.67 6883.67 6883.67 6883.67 6883.67 6883.67 6883.67 6883.67 6883.67 6883.67 6883.67 6883.67 6883.67 6883.67 6883.67 6883.67 6883.67 6883.67 6883.67 6883.67 6883.67 6883.67 6876.14 6856.65 6856.65 6856.65 6856.65 6856.65 6856.65 6856.65 6856.65 6856.65 6856.65 6856.65 6856.65 6856.65 6856.65 6856.65 6856.65 6856.65 6856.65 6856.65 6856.65 6856.65 6856.65 6856.65 6856.65 6856.65 6856.65 6856.65 6856.65 6856.65 6856.65 6856.65 6856.65 6856.65 6856.65 6856.65 6856.65 6856.65 6856.65 6856.65 6856.65 6856.65 6856.65 6856.65 6856.65 6856.65 6856.65 6856.65 6856.65 6856.65 6856.65 6856.65 6856.65 6856.65 6856.65 6856.65 6856.65 6856.65 6856.65 6856.65 6856.65 6856.65 6856.65 6856.65 6856.65 6856.65 6856.65 6856.65 6856.65 6856.65 6856.65 6856.65 6856.65 6856.65 6856.65 6856.65 6856.65 6856.65 6856.65 6856.65 6856.65 6856.65 6856.65 6856.65 6856.65 6831.56 6831.56 6831.56 6831.56 6817.89 6817.89 6817.89 6817.89 6811.49 6811.49 6811.49 6811.49 6810.72 6810.72 6810.72 6810.72 6810.72 6810.72 6759.27 6759.27 6759.27 6759.27 6759.27 6759.27 6759.27 6759.27 6759.27 6759.27 6759.27 6746.56 6735.4 6735.4 6735.4 6735.4 6735.4 6735.4 6735.4 6735.4 6735.4 6698.88 6698.88 6698.88 6698.88 6698.88 6698.88 6698.88 6698.88 6698.88 6698.88 6698.88 6698.88 6698.88 6698.88 6698.88 6698.88 6698.88 6698.88 6698.88 6698.88 6698.88 6691.71 6691.71 6691.71 6691.71 6691.71 6691.71 6691.71 6691.71 6691.71 6691.71 6691.71 6691.71 6691.71 6691.71 6691.71 6691.71 6691.71 6691.71 6691.71 6691.71 6691.71 6691.71 6691.71 6691.71 6691.71 6691.71 6677.43 6659.75 6659.75 6659.75 6659.75 6659.75 6659.75 6659.75 6659.75 6659.75 6659.75 6659.75 6659.75 6659.75 6659.75 6659.75 6659.75 6659.75 6659.75 6657.37 6657.37 6657.37 6657.37 6641.74 6641.74 6641.74 6641.74 6641.74 6641.74 6641.74 6641.74 6641.74 6641.74 6641.74 6641.74 6641.74 6629.05 6629.05 6629.05 6629.05 6629.05 6629.05 6629.05 6629.05 6629.05 6629.05 6629.05 6629.05 6629.05 6629.05 6624.25 6624.25 6624.25 6624.25 6624.25 6567.9 6567.9 6567.9 6567.9 6567.9 6567.9 6567.9 6567.9 6567.9 6567.9 6567.9 6567.9 6567.9 6567.9 6567.9 6567.9 6567.9 6567.9 6567.9 6567.9 6567.9 6567.9 6567.9 6567.9 6567.9 6567.9 6567.9 6567.9 
156 150 183 184 181 182 179 187 168 166 165 186 190 189 193 192 191 164 175 170 169 101 99 102 171 174 163 162 161 173 105 109 80 90 91 103 89 88 112 108 104 107 106 86 66 70 65 116 61 157 119 62 63 42 38 47 54 48 40 53 49 50 51 52 55 68 82 87 113 76 81 75 77 78 96 98 95 100 92 93 97 94 79 84 83 85 73 72 74 71 67 69 57 44 58 45 46 155 121 159 122 151 153 268 267 136 135 265 137 266 264 134 19 29 28 27 13 273 16 271 12 9 272 274 277 5 279 2 280 4 278 240 250 248 245 241 246 249 256 255 261 238 235 224 233 236 234 237 230 209 252 227 229 228 226 217 225 223 216 212 220 203 200 196 213 214 206 211 218 219 210 222 201 197 185 172 167 188 180 178 177 176 160 158 110 111 114 117 115 64 60 43 118 59 56 41 34 32 125 30 124 31 20 131 14 17 18 132 129 126 128 130 270 269 263 259 258 257 260 275 262 276 10 11 8 6 3 242 251 247 244 239 232 231 243 1 7 15 24 23 22 127 21 36 37 39 33 35 123 154 26 25 133 138 141 149 148 139 140 145 205 253 254 208 207 215 221 204 144 147 199 202 143 195 194 198 142 146 120 152 
1 2 242 243 244 241 240 239 238 237 236 235 234 233 232 231 246 245 247 250 251 230 229 228 227 226 225 224 223 222 221 220 219 218 217 216 215 214 213 212 211 210 207 206 205 204 203 202 201 198 197 196 195 194 193 192 191 190 189 188 187 186 185 184 183 182 181 176 180 179 150 178 177 151 152 156 153 155 154 129 130 131 20 21 128 127 126 125 124 123 122 121 120 119 157 158 159 160 175 161 162 163 164 165 166 167 168 169 170 172 171 173 174 107 106 105 104 103 102 101 100 99 98 97 96 95 94 93 92 91 90 89 109 108 110 111 112 88 87 113 114 115 117 116 86 85 84 83 82 81 80 79 78 77 76 75 74 73 72 71 70 69 68 67 66 65 64 58 57 56 55 54 53 52 51 50 49 48 47 46 45 44 59 63 62 118 61 60 43 42 41 40 39 38 37 36 35 34 33 32 31 30 29 28 27 26 22 25 23 24 14 15 13 12 11 10 9 8 7 6 5 4 277 276 275 274 273 272 271 16 17 18 19 132 133 134 270 269 135 136 268 267 137 138 139 149 148 147 146 145 199 200 144 143 142 141 140 266 265 264 263 262 261 260 259 258 257 254 253 208 209 252 255 256 249 248 278 279 3 280 